WARNING: for repeatability, setting FPU to use double precision
============================[ Problem Statistics ]=============================
|                                                                             |
|  Number of variables:           700                                         |
|  Number of clauses:           27527                                         |
|  Parse time:                   0.01 s                                       |
|                                                                             |
c ============================[ Search Statistics ]==============================
c | Conflicts |          ORIGINAL         |          LEARNT          | Progress |
c |           |    Vars  Clauses Literals |    Limit  Clauses Lit/Cl |          |
c ===============================================================================
c Switched to VSIDS.
c Switched to LRB.
c Switched to VSIDS.
c Switched to LRB.
c Switched to VSIDS.
c Switched to LRB.
c Switched to VSIDS.
c Switched to LRB.
c Switched to VSIDS.
c Switched to LRB.
c Switched to VSIDS.
c Switched to LRB.
c Switched to VSIDS.
c Switched to LRB.
c ===============================================================================
restarts                  : 84888
conflicts                 : 18155339       (5147 /sec)
decisions                 : 35276398       (0.00 % random) (10000 /sec)
propagations              : 995382998      (282171 /sec)
conflict literals         : 4679433376     (7.67 % deleted)

conflicts w/ DIP found    : 11045983       (60.84 % of conflicts)
conflicts w/ dangerous DIP: 0              (0.00 % of conflicts)
conflicts w/ DIP-learning : 8701           (0.05 % of conflicts)
decisions on ext vars     : 526            (0.00 % of decisions)
total ext vars            : 1522        
tried delete ext vars     : 50          
deleted ext vars          : 50          
max ext vars              : 1472        

Memory used               : 429.00 MB
CPU time                  : 3527.59 s
DIP computation time      : 95.594 s (2.71 % of total time)
ER_sel time               : 32.7545 s
ER_add time               : 0.008407 s
ER_delC time              : 0 s
ER_delV time              : 0.176056 s
ER_sub time               : 35.6171 s
ER_stat time              : 0 s

INDETERMINATE
